; benchmark generated from python API
(set-info :status unknown)
(declare-fun x_days () Int)
(declare-fun y_days () Int)
(declare-fun z_days () Int)
(assert
 (>= x_days (- 36584)))
(assert
 (<= x_days 36829))
(assert
 (= x_days 8371))
(assert
 (>= y_days (- 36584)))
(assert
 (<= y_days 36829))
(assert
 (>= z_days (- 36584)))
(assert
 (<= z_days 36829))
(assert
 (let (($x29 (or (and (= (mod 2000 4) 0) (and (distinct (mod 2000 100) 0) true)) (= (mod 2000 400) 0))))
 (let ((?x36 (ite (= 3 2) (ite $x29 31 31) (ite (= 3 1) (ite $x29 0 0) 0))))
 (let ((?x40 (ite $x29 60 59)))
 (let ((?x41 (ite (= 3 3) ?x40 ?x36)))
 (let ((?x46 (ite (= 3 4) (ite $x29 91 90) ?x41)))
 (let ((?x52 (ite (= 3 5) (ite $x29 121 120) ?x46)))
 (let ((?x58 (ite (= 3 6) (ite $x29 152 151) ?x52)))
 (let ((?x64 (ite (= 3 7) (ite $x29 182 181) ?x58)))
 (let ((?x70 (ite (= 3 8) (ite $x29 213 212) ?x64)))
 (let ((?x76 (ite (= 3 9) (ite $x29 244 243) ?x70)))
 (let ((?x82 (ite (= 3 10) (ite $x29 274 273) ?x76)))
 (let ((?x88 (ite (= 3 11) (ite $x29 305 304) ?x82)))
 (let ((?x16 (- (+ (* 365 (- 2000 1)) (div (- 2000 1) 4)) (div (- 2000 1) 100))))
 (let ((?x95 (+ (+ ?x16 (div (- 2000 1) 400)) (ite (= 3 12) (ite $x29 335 334) ?x88))))
 (let ((?x97 (+ ?x95 (- 1 1))))
 (let ((?x588 (+ x_days ?x97)))
 (let ((?x467 (mod ?x588 146097)))
 (let ((?x494 (div ?x467 36524)))
 (let ((?x534 (ite (<= 4 ?x494) 3 ?x494)))
 (let ((?x492 (- ?x467 (* ?x534 36524))))
 (let ((?x2587 (mod ?x492 1461)))
 (let ((?x505 (div ?x2587 365)))
 (let ((?x188 (ite (<= 4 ?x505) 3 ?x505)))
 (let ((?x374 (+ (+ (* (div ?x588 146097) 400) (* ?x534 100)) (* (div ?x492 1461) 4))))
 (let ((?x487 (+ (+ ?x374 ?x188) 1)))
 (let (($x836 (or (and (= (mod ?x487 4) 0) (and (distinct (mod ?x487 100) 0) true)) (= (mod ?x487 400) 0))))
 (let ((?x594 (- ?x2587 (* ?x188 365))))
 (let ((?x117 (ite $x836 31 31)))
 (let (($x2595 (>= ?x594 ?x117)))
 (let ((?x531 (ite $x2595 (+ (- ?x594 ?x117) 1) (+ (- ?x594 (ite $x836 0 0)) 1))))
 (let ((?x168 (ite $x836 60 59)))
 (let (($x631 (>= ?x594 ?x168)))
 (let ((?x201 (ite $x836 91 90)))
 (let (($x526 (>= ?x594 ?x201)))
 (let ((?x830 (ite $x526 (+ (- ?x594 ?x201) 1) (ite $x631 (+ (- ?x594 ?x168) 1) ?x531))))
 (let ((?x365 (ite $x836 121 120)))
 (let (($x812 (>= ?x594 ?x365)))
 (let ((?x652 (ite $x836 152 151)))
 (let (($x465 (>= ?x594 ?x652)))
 (let ((?x815 (ite $x465 (+ (- ?x594 ?x652) 1) (ite $x812 (+ (- ?x594 ?x365) 1) ?x830))))
 (let ((?x601 (ite $x836 182 181)))
 (let (($x471 (>= ?x594 ?x601)))
 (let ((?x236 (ite $x836 213 212)))
 (let (($x445 (>= ?x594 ?x236)))
 (let ((?x630 (ite $x445 (+ (- ?x594 ?x236) 1) (ite $x471 (+ (- ?x594 ?x601) 1) ?x815))))
 (let ((?x454 (ite $x836 244 243)))
 (let (($x571 (>= ?x594 ?x454)))
 (let ((?x406 (ite $x836 274 273)))
 (let (($x542 (>= ?x594 ?x406)))
 (let ((?x523 (ite $x542 (+ (- ?x594 ?x406) 1) (ite $x571 (+ (- ?x594 ?x454) 1) ?x630))))
 (let ((?x809 (ite $x836 305 304)))
 (let (($x568 (>= ?x594 ?x809)))
 (let ((?x615 (ite $x836 335 334)))
 (let (($x524 (>= ?x594 ?x615)))
 (let ((?x2720 (ite $x524 (+ (- ?x594 ?x615) 1) (ite $x568 (+ (- ?x594 ?x809) 1) ?x523))))
 (let ((?x743 (ite $x812 5 (ite $x526 4 (ite $x631 3 (ite $x2595 2 1))))))
 (let ((?x801 (ite $x571 9 (ite $x445 8 (ite $x471 7 (ite $x465 6 ?x743))))))
 (let ((?x389 (+ (ite $x524 12 (ite $x568 11 (ite $x542 10 ?x801))) (+ (* 0 12) 1))))
 (let ((?x573 (- ?x389 1)))
 (let ((?x2056 (+ (mod ?x573 12) 1)))
 (let ((?x360 (ite (or (= ?x2056 4) (= ?x2056 6) (= ?x2056 9) (= ?x2056 11)) 30 31)))
 (let (($x541 (and (= (mod (+ ?x487 (+ 0 (div ?x573 12))) 4) 0) (and (distinct (mod (+ ?x487 (+ 0 (div ?x573 12))) 100) 0) true))))
 (let (($x799 (or $x541 (= (mod (+ ?x487 (+ 0 (div ?x573 12))) 400) 0))))
 (let ((?x633 (ite (= ?x2056 2) (ite $x799 29 28) ?x360)))
 (let ((?x622 (ite (> 1 ?x2720) 1 (ite (> ?x2720 ?x633) ?x633 ?x2720))))
 (let ((?x138 (ite (> 1 ?x622) 1 (ite (> ?x622 ?x633) ?x633 ?x622))))
 (let ((?x616 (ite (= 2 ?x2056) (ite $x799 31 31) (ite (= 1 ?x2056) (ite $x799 0 0) 0))))
 (let ((?x240 (ite (= 4 ?x2056) (ite $x799 91 90) (ite (= 3 ?x2056) (ite $x799 60 59) ?x616))))
 (let ((?x802 (ite (= 6 ?x2056) (ite $x799 152 151) (ite (= 5 ?x2056) (ite $x799 121 120) ?x240))))
 (let ((?x721 (ite (= 8 ?x2056) (ite $x799 213 212) (ite (= 7 ?x2056) (ite $x799 182 181) ?x802))))
 (let ((?x2146 (ite (= 10 ?x2056) (ite $x799 274 273) (ite (= 9 ?x2056) (ite $x799 244 243) ?x721))))
 (let ((?x177 (ite (= 12 ?x2056) (ite $x799 335 334) (ite (= 11 ?x2056) (ite $x799 305 304) ?x2146))))
 (let ((?x500 (+ (* 365 (- (+ ?x487 (+ 0 (div ?x573 12))) 1)) (div (- (+ ?x487 (+ 0 (div ?x573 12))) 1) 4))))
 (let ((?x587 (+ (- ?x500 (div (- (+ ?x487 (+ 0 (div ?x573 12))) 1) 100)) (div (- (+ ?x487 (+ 0 (div ?x573 12))) 1) 400))))
 (let ((?x3001 (+ (+ (- (+ (+ ?x587 ?x177) (- ?x138 1)) ?x97) 0) ?x97)))
 (let ((?x1747 (mod ?x3001 146097)))
 (let ((?x728 (div ?x1747 36524)))
 (let ((?x822 (ite (<= 4 ?x728) 3 ?x728)))
 (let ((?x831 (- ?x1747 (* ?x822 36524))))
 (let ((?x758 (mod ?x831 1461)))
 (let ((?x2745 (div ?x758 365)))
 (let ((?x790 (ite (<= 4 ?x2745) 3 ?x2745)))
 (let ((?x507 (+ (+ (* (div ?x3001 146097) 400) (* ?x822 100)) (* (div ?x831 1461) 4))))
 (let ((?x357 (+ (+ ?x507 ?x790) 1)))
 (let (($x292 (or (and (= (mod ?x357 4) 0) (and (distinct (mod ?x357 100) 0) true)) (= (mod ?x357 400) 0))))
 (let ((?x216 (- ?x758 (* ?x790 365))))
 (let ((?x3000 (ite $x292 31 31)))
 (let (($x464 (>= ?x216 ?x3000)))
 (let ((?x780 (ite $x464 (+ (- ?x216 ?x3000) 1) (+ (- ?x216 (ite $x292 0 0)) 1))))
 (let ((?x846 (ite $x292 60 59)))
 (let (($x738 (>= ?x216 ?x846)))
 (let ((?x695 (ite $x292 91 90)))
 (let (($x506 (>= ?x216 ?x695)))
 (let ((?x2065 (ite $x506 (+ (- ?x216 ?x695) 1) (ite $x738 (+ (- ?x216 ?x846) 1) ?x780))))
 (let ((?x716 (ite $x292 121 120)))
 (let (($x2486 (>= ?x216 ?x716)))
 (let ((?x1283 (ite $x292 152 151)))
 (let (($x538 (>= ?x216 ?x1283)))
 (let ((?x551 (ite $x538 (+ (- ?x216 ?x1283) 1) (ite $x2486 (+ (- ?x216 ?x716) 1) ?x2065))))
 (let ((?x1397 (ite $x292 182 181)))
 (let (($x840 (>= ?x216 ?x1397)))
 (let ((?x288 (ite $x292 213 212)))
 (let (($x124 (>= ?x216 ?x288)))
 (let ((?x356 (ite $x124 (+ (- ?x216 ?x288) 1) (ite $x840 (+ (- ?x216 ?x1397) 1) ?x551))))
 (let ((?x160 (ite $x292 244 243)))
 (let (($x3228 (>= ?x216 ?x160)))
 (let ((?x328 (ite $x292 274 273)))
 (let (($x231 (>= ?x216 ?x328)))
 (let ((?x2396 (ite $x231 (+ (- ?x216 ?x328) 1) (ite $x3228 (+ (- ?x216 ?x160) 1) ?x356))))
 (let ((?x428 (ite $x292 305 304)))
 (let (($x1788 (>= ?x216 ?x428)))
 (let ((?x316 (ite $x292 335 334)))
 (let (($x1768 (>= ?x216 ?x316)))
 (let ((?x596 (ite $x1768 (+ (- ?x216 ?x316) 1) (ite $x1788 (+ (- ?x216 ?x428) 1) ?x2396))))
 (let (($x214 (= 0 0)))
 (let (($x272 (= (mod (ite $x214 (+ ?x487 (+ 0 (div ?x573 12))) ?x357) 400) 0)))
 (let (($x331 (and (distinct (mod (ite $x214 (+ ?x487 (+ 0 (div ?x573 12))) ?x357) 100) 0) true)))
 (let (($x452 (= (mod (ite $x214 (+ ?x487 (+ 0 (div ?x573 12))) ?x357) 4) 0)))
 (let (($x483 (or (and $x452 $x331) $x272)))
 (let ((?x528 (ite $x2486 5 (ite $x506 4 (ite $x738 3 (ite $x464 2 1))))))
 (let ((?x260 (ite $x3228 9 (ite $x124 8 (ite $x840 7 (ite $x538 6 ?x528))))))
 (let ((?x481 (ite $x214 ?x2056 (ite $x1768 12 (ite $x1788 11 (ite $x231 10 ?x260))))))
 (let ((?x134 (ite (= 2 ?x481) (ite $x483 31 31) (ite (= 1 ?x481) (ite $x483 0 0) 0))))
 (let ((?x261 (ite (= 4 ?x481) (ite $x483 91 90) (ite (= 3 ?x481) (ite $x483 60 59) ?x134))))
 (let ((?x817 (ite (= 6 ?x481) (ite $x483 152 151) (ite (= 5 ?x481) (ite $x483 121 120) ?x261))))
 (let ((?x553 (ite (= 8 ?x481) (ite $x483 213 212) (ite (= 7 ?x481) (ite $x483 182 181) ?x817))))
 (let ((?x3223 (ite (= 10 ?x481) (ite $x483 274 273) (ite (= 9 ?x481) (ite $x483 244 243) ?x553))))
 (let ((?x2967 (ite (= 12 ?x481) (ite $x483 335 334) (ite (= 11 ?x481) (ite $x483 305 304) ?x3223))))
 (let ((?x366 (+ ?x487 (+ 0 (div ?x573 12)))))
 (let ((?x2444 (ite $x214 ?x366 ?x357)))
 (let ((?x753 (- ?x2444 1)))
 (let ((?x370 (+ (- (+ (* 365 ?x753) (div ?x753 4)) (div ?x753 100)) (div ?x753 400))))
 (= y_days (- (+ (+ ?x370 ?x2967) (- (ite $x214 ?x138 ?x596) 1)) ?x97)))))))))))))))))))))))))))))))))))))))))))))))))))))))))))))))))))))))))))))))))))))))))))))))))))))))))))))))))))))))))))))))))))))))
(assert
 (= z_days (+ x_days 30)))
(assert
 (not (= y_days z_days)))
(check-sat)
